db/data/950522805102562908715313150944788777.z3.out
sat
-------------------
202.535205734
